c Sudoku solution
p cnf 729 0
169 0
237 0
258 0
266 0
316 0
343 0
424 0
467 0
498 0
583 0
592 0
633 0
453 0
646 0
665 0
671 0
726 0
747 0
788 0
813 0
832 0
874 0
889 0
925 0
934 0
948 0
861 0
845 0
856 0
897 0
828 0
917 0
959 0
618 0
568 0
993 0
763 0
962 0
754 0
772 0
976 0
795 0
981 0
551 0
544 0
652 0
449 0
412 0
431 0
536 0
515 0
739 0
711 0
114 0
219 0
364 0
475 0
486 0
273 0
123 0
196 0
141 0
242 0
182 0
221 0
322 0
391 0
379 0
178 0
387 0
157 0
355 0
135 0
338 0
577 0
684 0
699 0
529 0
627 0
285 0
294 0
